50
    1   617   655
    2   959   896
    3   255   346
    4  1009   927
    5   473   508
    6   121   165
    7  1079   981
    8    92    95
    9   965   893
   10   792   822
   11  1012   995
   12   644   679
   13   567   596
   14   232   256
   15   167   228
   16   493   528
   17   613   645
   18   203   188
   19   880   961
   20   827   890
   21   203   277
   22    68    11
   23   203   156
   24   522   514
   25   972   956
   26   595   636
   27  1010   978
   28   869   795
   29   717   805
   30   559   587
   31   118    33
   32     1     7
   33   667   707
   34   375   289
   35   350   300
   36   334   237
   37   204   212
   38   290   280
   39   122   156
   40    96   106
   41    53   151
   42   304   277
   43   266   190
   44   249   273
   45   259   239
   46   638   558
   47   571   609
   48   111    29
   49    82   119
   50   250   252
19160
